 200 51 
 63 79 13 9 5 43 72 11 27 45 5 27 
 93 61 81 100 94 10 27 18 74 94 50 36 
 77 40 26 75 52 32 58 80 50 85 52 98 
 39 46 77 31 95 31 99 89 11 2 28 64 
 77 5 83 
 19 
 6 9 12 16 17 19 24 26 27 28 29 30 
 32 36 39 40 44 48 50 
 20 
 3 4 5 6 8 9 11 14 20 25 26 27 
 31 32 35 39 40 44 46 49 
 18 
 1 4 15 16 17 18 22 26 27 29 32 35 
 38 39 44 46 49 50 
 14 
 1 5 7 9 16 19 23 27 32 37 44 47 
 50 51 
 17 
 1 5 8 14 15 17 24 25 28 30 31 34 
 36 40 42 43 50 
 4 
 6 33 46 48 
 25 
 1 6 10 11 15 16 17 20 21 22 23 24 
 27 28 30 31 33 35 38 40 41 42 43 45 
 51 
 27 
 1 2 3 4 5 6 7 8 9 13 14 15 
 17 18 20 22 23 24 28 30 32 33 38 42 
 46 49 51 
 31 
 1 2 3 4 6 7 10 12 13 16 17 18 
 22 23 25 27 28 30 32 35 36 37 40 41 
 42 44 45 48 49 50 51 
 41 
 3 4 5 6 8 9 10 12 14 15 17 18 
 19 20 21 23 24 25 26 27 28 29 30 31 
 32 33 34 35 36 37 38 39 40 41 42 43 
 44 45 46 47 50 
 40 
 1 2 4 5 6 7 8 9 10 11 12 14 
 15 16 17 18 19 20 21 22 24 25 26 27 
 29 32 33 34 35 37 38 40 41 42 44 46 
 47 48 50 51 
 35 
 4 5 6 9 10 11 12 13 15 17 18 19 
 20 21 22 23 24 26 27 28 29 30 31 32 
 33 35 36 39 41 42 43 44 46 49 50 
 18 
 2 4 5 16 18 21 22 23 25 27 32 33 
 39 41 42 43 46 47 
 10 
 2 10 16 20 25 28 34 40 47 49 
 23 
 1 4 6 8 9 11 12 13 16 17 18 20 
 24 27 29 32 33 34 38 40 46 47 50 
 28 
 1 4 6 7 9 11 12 14 16 17 19 20 
 21 22 23 30 31 34 35 36 37 38 41 43 
 44 46 49 50 
 8 
 7 13 18 25 26 28 35 46 
 10 
 7 14 17 22 25 30 33 37 38 44 
 36 
 1 2 3 4 5 6 9 10 13 16 17 18 
 19 21 22 23 24 25 26 27 28 29 31 32 
 34 35 36 38 39 40 42 43 45 46 47 51 
 5 
 25 36 39 42 48 
 4 
 6 25 36 41 
 14 
 10 18 19 21 26 27 33 34 37 38 43 49 
 50 51 
 48 
 1 2 3 4 5 6 7 8 9 10 11 12 
 13 14 15 16 17 18 19 20 21 22 23 24 
 25 26 27 28 29 30 31 32 33 34 35 36 
 37 38 39 40 41 42 44 45 46 47 48 51 
 18 
 4 8 9 17 18 19 21 23 27 29 38 39 
 40 41 42 43 50 51 
 6 
 5 6 8 28 29 35 
 44 
 1 3 4 5 6 7 8 9 11 12 13 14 
 15 16 17 18 19 20 21 23 24 25 26 27 
 28 29 31 32 33 34 35 36 37 38 41 42 
 43 45 46 47 48 49 50 51 
 26 
 1 5 7 8 10 11 16 17 19 20 22 26 
 28 29 30 31 33 37 39 42 43 45 46 49 
 50 51 
 33 
 1 2 3 4 5 10 11 12 13 14 16 17 
 18 20 21 22 25 27 29 30 31 32 35 36 
 39 42 43 44 46 47 49 50 51 
 33 
 1 2 3 5 6 7 8 10 11 12 15 16 
 18 20 21 22 25 26 27 28 31 32 33 35 
 36 40 43 45 46 48 49 50 51 
 2 
 21 31 
 46 
 2 3 4 5 6 7 8 9 10 12 13 14 
 15 16 17 18 19 20 21 22 24 25 26 27 
 28 29 30 32 33 34 35 36 37 38 39 40 
 41 42 43 44 45 46 47 49 50 51 
 4 
 6 10 14 44 
 38 
 4 5 6 7 9 10 11 12 14 15 16 17 
 19 20 23 24 25 26 27 28 29 30 31 32 
 34 35 37 38 39 40 41 42 43 44 45 48 
 49 51 
 41 
 1 2 3 4 5 7 8 10 11 14 15 16 
 18 19 20 21 22 23 24 25 26 27 28 29 
 30 31 32 34 35 36 37 40 41 42 43 44 
 46 47 49 50 51 
 11 
 1 11 16 21 28 29 33 34 37 40 46 
 33 
 2 5 7 8 9 12 13 15 16 18 19 21 
 23 24 27 28 31 32 33 35 37 39 40 41 
 42 43 45 46 47 48 49 50 51 
 17 
 2 3 4 5 7 13 19 21 27 29 30 31 
 33 45 46 47 49 
 3 
 2 14 19 
 5 
 1 14 22 23 25 
 6 
 3 23 24 30 35 44 
 6 
 26 31 32 46 47 51 
 3 
 21 35 46 
 48 
 1 2 3 4 5 6 7 8 10 11 13 14 
 15 16 17 18 19 20 21 22 23 24 25 26 
 27 28 29 30 31 32 33 34 35 36 37 38 
 39 40 41 42 43 44 45 47 48 49 50 51 
 31 
 1 3 4 6 7 8 9 10 12 14 16 17 
 18 21 23 26 28 29 30 31 32 33 35 38 
 39 41 43 46 48 49 50 
 43 
 1 2 3 4 5 6 7 8 9 12 14 16 
 18 19 20 21 22 23 24 26 27 28 29 30 
 31 32 33 34 35 36 37 39 40 42 43 44 
 45 46 47 48 49 50 51 
 28 
 1 3 6 7 9 10 11 12 14 16 19 20 
 22 23 24 25 26 27 28 30 35 37 39 40 
 41 42 44 49 
 49 
 1 2 3 4 5 6 7 8 9 10 11 12 
 14 15 16 17 18 19 20 21 22 23 24 26 
 27 28 29 30 31 32 33 34 35 36 37 38 
 39 40 41 42 43 44 45 46 47 48 49 50 
 51 
 28 
 4 5 6 7 9 11 12 13 18 19 20 22 
 24 25 26 27 28 29 32 33 34 39 40 42 
 44 47 48 50 
 42 
 1 2 3 4 5 6 7 8 9 10 12 13 
 14 18 20 21 22 23 24 25 26 27 28 29 
 30 31 33 34 35 37 38 39 40 41 42 43 
 44 45 46 47 48 50 
 46 
 1 3 4 5 6 7 8 10 11 13 14 15 
 16 17 18 19 21 22 23 24 25 27 28 29 
 30 31 32 33 34 35 36 37 38 39 40 41 
 42 43 44 45 46 47 48 49 50 51 
 49 
 1 2 3 4 5 6 7 8 9 10 11 12 
 13 14 15 16 17 18 19 20 21 22 23 24 
 25 26 27 28 29 30 31 32 33 35 36 37 
 38 39 40 41 42 43 44 45 46 47 48 49 
 51 
 7 
 11 25 26 31 34 37 47 
 14 
 3 7 9 10 12 13 16 17 18 19 21 42 
 45 48 
 33 
 2 4 5 7 8 9 10 12 13 14 15 19 
 20 21 22 24 25 26 28 29 31 35 36 37 
 38 40 42 43 46 48 49 50 51 
 35 
 1 2 3 5 7 9 10 11 12 15 16 17 
 18 19 21 22 23 24 27 28 29 31 34 36 
 39 40 41 43 44 45 46 47 48 50 51 
 24 
 1 2 3 6 10 11 13 17 18 19 20 21 
 25 28 29 30 34 35 42 43 45 47 48 50 
 21 
 8 10 11 13 15 16 17 19 21 23 24 26 
 27 28 30 39 41 42 46 48 49 
 47 
 1 2 3 4 5 6 7 8 9 10 11 12 
 13 14 15 16 17 18 19 20 21 22 23 24 
 25 26 27 28 29 30 34 35 36 37 38 40 
 41 42 43 44 45 46 47 48 49 50 51 
 19 
 2 4 5 7 10 14 15 25 27 31 32 34 
 35 38 41 43 45 46 48 
 9 
 15 21 25 29 30 32 36 38 50 
 29 
 1 3 4 5 7 8 10 11 13 14 15 16 
 17 20 21 22 23 24 28 30 33 37 39 40 
 41 42 43 44 45 
 14 
 1 3 4 8 9 13 15 21 27 29 41 44 
 45 50 
 41 
 1 2 3 4 5 6 7 8 10 11 12 13 
 14 15 16 17 18 19 20 21 22 24 26 27 
 30 31 32 33 34 35 37 40 41 43 44 45 
 46 47 48 50 51 
 23 
 1 4 6 8 10 11 13 16 17 21 23 27 
 30 31 33 35 36 38 44 46 47 49 51 
 36 
 3 5 6 8 9 10 11 12 13 14 15 16 
 17 18 19 20 22 26 27 28 29 30 32 33 
 34 36 37 39 41 42 43 44 46 48 49 51 
 17 
 1 3 8 9 17 18 20 27 28 31 35 38 
 39 40 45 47 49 
 50 
 1 2 3 4 5 6 7 9 10 11 12 13 
 14 15 16 17 18 19 20 21 22 23 24 25 
 26 27 28 29 30 31 32 33 34 35 36 37 
 38 39 40 41 42 43 44 45 46 47 48 49 
 50 51 
 6 
 13 17 37 38 41 42 
 8 
 9 14 23 25 36 47 50 51 
 24 
 2 3 4 5 7 8 12 13 17 23 24 26 
 27 31 33 35 36 38 39 43 44 46 47 49 
 13 
 2 12 17 18 21 22 24 31 36 44 45 47 
 51 
 6 
 8 12 28 32 40 47 
 17 
 2 4 5 6 7 14 21 22 25 28 31 32 
 33 44 47 49 50 
 43 
 1 2 4 6 7 8 9 10 12 13 14 15 
 16 19 21 22 23 24 25 26 27 28 30 31 
 32 33 34 35 37 38 39 40 41 42 43 44 
 45 46 47 48 49 50 51 
 51 
 1 2 3 4 5 6 7 8 9 10 11 12 
 13 14 15 16 17 18 19 20 21 22 23 24 
 25 26 27 28 29 30 31 32 33 34 35 36 
 37 38 39 40 41 42 43 44 45 46 47 48 
 49 50 51 
 37 
 2 3 4 5 6 7 8 11 12 13 14 16 
 17 18 19 20 21 23 24 25 26 28 31 32 
 35 36 38 39 41 42 43 44 45 46 47 48 
 50 
 39 
 1 3 7 8 9 10 11 12 13 14 15 18 
 19 21 22 23 24 25 26 27 28 31 32 33 
 34 35 36 37 39 40 42 43 44 45 46 47 
 48 50 51 
 45 
 1 2 3 4 6 8 9 10 11 12 13 14 
 15 16 17 18 19 21 22 23 24 25 26 27 
 28 29 30 31 32 33 34 35 36 37 38 39 
 40 42 44 45 46 47 48 49 51 
 11 
 3 6 10 16 19 21 23 25 28 46 48 
 18 
 11 17 19 23 25 27 28 29 33 34 35 36 
 40 41 43 47 48 49 
 44 
 1 3 4 5 6 7 9 10 11 12 13 14 
 15 16 17 18 19 21 22 23 24 25 26 27 
 28 30 31 32 33 34 35 37 38 41 42 43 
 44 45 46 47 48 49 50 51 
 20 
 2 3 12 14 16 21 22 23 27 32 33 35 
 37 39 40 41 42 45 49 51 
 15 
 1 5 9 14 19 21 27 32 33 35 41 42 
 45 47 49 
 51 
 1 2 3 4 5 6 7 8 9 10 11 12 
 13 14 15 16 17 18 19 20 21 22 23 24 
 25 26 27 28 29 30 31 32 33 34 35 36 
 37 38 39 40 41 42 43 44 45 46 47 48 
 49 50 51 
 48 
 1 2 3 4 5 6 7 8 9 10 11 12 
 14 15 16 17 18 19 20 21 22 24 25 26 
 27 28 29 30 31 32 33 34 35 36 37 38 
 39 40 41 42 43 44 45 47 48 49 50 51 
 22 
 1 2 9 11 12 17 21 22 25 26 28 31 
 33 34 36 37 40 42 44 45 48 49 
 5 
 20 25 40 48 49 
 25 
 3 5 6 12 15 17 19 20 22 24 27 28 
 33 34 36 37 38 42 43 44 46 47 48 49 
 51 
 8 
 6 8 9 14 22 23 28 33 
 48 
 1 2 3 4 5 6 7 8 9 10 11 12 
 13 14 15 16 17 18 19 20 21 22 23 24 
 25 26 27 28 29 30 32 33 35 36 37 38 
 39 40 41 42 43 44 46 47 48 49 50 51 
 32 
 2 3 5 6 8 10 12 14 15 16 19 20 
 21 23 24 25 26 27 29 31 33 35 36 37 
 40 41 42 44 46 47 50 51 
 10 
 6 12 21 22 25 34 40 43 45 51 
 49 
 1 2 3 4 5 6 7 8 9 10 12 13 
 14 15 16 17 18 19 20 21 22 23 24 25 
 26 27 28 29 30 31 32 33 34 35 36 37 
 38 39 40 41 42 43 44 45 46 48 49 50 
 51 
 21 
 1 2 5 6 8 12 14 16 19 21 22 28 
 29 31 32 35 42 44 47 49 51 
 22 
 1 4 5 11 13 14 16 17 19 20 21 23 
 24 31 32 34 35 36 39 40 42 50 
 51 
 1 2 3 4 5 6 7 8 9 10 11 12 
 13 14 15 16 17 18 19 20 21 22 23 24 
 25 26 27 28 29 30 31 32 33 34 35 36 
 37 38 39 40 41 42 43 44 45 46 47 48 
 49 50 51 
 6 
 6 8 16 28 37 47 
 16 
 2 6 7 9 10 11 14 15 19 22 23 32 
 46 48 49 51 
 27 
 2 3 4 6 8 9 11 14 15 16 18 19 
 21 22 25 26 29 30 32 40 41 43 44 47 
 48 50 51 
 41 
 1 2 3 4 8 9 10 11 12 13 14 15 
 17 18 19 20 21 22 23 24 26 27 28 30 
 31 32 33 34 35 36 38 40 41 42 43 45 
 46 47 48 50 51 
 27 
 1 3 6 8 9 13 16 18 21 22 24 25 
 27 28 30 31 34 36 37 38 40 41 42 47 
 48 49 51 
 42 
 1 2 3 5 7 8 9 11 12 13 14 15 
 16 18 19 20 21 22 23 24 26 27 28 29 
 31 32 33 34 35 36 37 38 39 40 43 44 
 45 46 47 48 49 50 
 27 
 1 2 4 5 7 9 14 16 17 19 20 21 
 23 24 26 27 32 35 36 39 40 41 42 44 
 48 49 50 
 29 
 1 3 5 6 7 8 9 10 11 13 14 18 
 20 21 25 27 29 30 31 34 36 37 38 40 
 42 43 45 46 51 
 8 
 4 14 24 28 36 42 43 48 
 32 
 1 2 4 5 6 7 8 9 10 12 13 17 
 18 20 22 27 28 29 31 32 33 34 36 41 
 42 43 44 45 46 48 49 50 
 30 
 1 3 4 5 7 8 9 10 11 13 14 17 
 18 19 22 24 26 27 31 32 35 36 38 39 
 40 44 47 48 49 51 
 16 
 3 5 8 10 12 13 15 17 21 27 29 33 
 36 38 47 49 
 31 
 2 3 4 6 8 9 10 13 14 15 16 18 
 19 20 21 24 26 27 28 32 33 34 35 36 
 43 44 46 47 49 50 51 
 5 
 6 22 33 41 44 
 23 
 6 10 11 13 15 22 24 25 27 28 29 31 
 32 35 36 37 38 39 40 45 46 48 51 
 51 
 1 2 3 4 5 6 7 8 9 10 11 12 
 13 14 15 16 17 18 19 20 21 22 23 24 
 25 26 27 28 29 30 31 32 33 34 35 36 
 37 38 39 40 41 42 43 44 45 46 47 48 
 49 50 51 
 19 
 2 9 10 12 13 15 16 26 27 29 33 37 
 38 40 42 43 47 48 51 
 15 
 2 3 5 6 10 16 19 25 27 28 30 33 
 38 45 50 
 51 
 1 2 3 4 5 6 7 8 9 10 11 12 
 13 14 15 16 17 18 19 20 21 22 23 24 
 25 26 27 28 29 30 31 32 33 34 35 36 
 37 38 39 40 41 42 43 44 45 46 47 48 
 49 50 51 
 26 
 5 11 12 17 18 19 20 25 26 27 28 29 
 32 33 35 36 38 39 40 41 42 43 46 47 
 49 51 
 41 
 1 2 3 5 6 7 9 12 14 15 16 17 
 18 19 20 21 22 23 24 25 26 27 28 29 
 30 32 33 34 36 37 38 39 41 43 45 46 
 47 48 49 50 51 
 37 
 2 3 4 5 7 8 9 11 13 15 16 17 
 18 19 20 21 22 23 24 25 27 28 31 32 
 33 35 36 37 39 40 42 43 44 45 47 48 
 49 
 37 
 1 2 3 4 6 9 10 11 12 13 14 15 
 16 17 19 20 21 22 23 24 27 28 30 31 
 32 34 35 37 38 39 40 41 44 45 47 48 
 50 
 6 
 8 10 16 27 34 47 
 34 
 1 3 5 6 7 8 9 10 11 12 13 14 
 18 20 21 22 23 25 26 27 30 31 32 33 
 35 37 38 39 41 43 44 48 50 51 
 51 
 1 2 3 4 5 6 7 8 9 10 11 12 
 13 14 15 16 17 18 19 20 21 22 23 24 
 25 26 27 28 29 30 31 32 33 34 35 36 
 37 38 39 40 41 42 43 44 45 46 47 48 
 49 50 51 
 49 
 1 3 4 5 6 7 8 9 10 11 12 14 
 15 16 17 18 19 20 21 22 23 24 25 26 
 27 28 29 30 31 32 33 34 35 36 37 38 
 39 40 41 42 43 44 45 46 47 48 49 50 
 51 
 50 
 1 2 3 4 5 6 7 8 9 10 11 12 
 13 14 15 16 17 18 20 21 22 23 24 25 
 26 27 28 29 30 31 32 33 34 35 36 37 
 38 39 40 41 42 43 44 45 46 47 48 49 
 50 51 
 18 
 1 3 11 12 13 14 16 23 24 27 31 34 
 36 37 40 42 46 47 
 23 
 1 3 7 10 11 12 17 19 21 23 25 26 
 32 35 36 37 38 42 44 45 46 48 50 
 8 
 9 27 28 36 37 40 42 45 
 20 
 3 6 7 12 16 17 18 19 20 21 22 23 
 30 33 34 38 42 44 48 49 
 51 
 1 2 3 4 5 6 7 8 9 10 11 12 
 13 14 15 16 17 18 19 20 21 22 23 24 
 25 26 27 28 29 30 31 32 33 34 35 36 
 37 38 39 40 41 42 43 44 45 46 47 48 
 49 50 51 
 6 
 4 7 16 20 26 38 
 13 
 2 7 9 10 12 19 20 29 33 34 43 44 
 49 
 40 
 1 2 3 4 5 6 7 8 10 11 12 13 
 14 15 16 17 18 19 20 21 23 25 26 27 
 28 29 30 31 32 37 38 39 40 41 42 44 
 45 46 48 49 
 44 
 2 3 4 5 6 7 9 10 11 12 13 14 
 15 16 18 20 22 24 25 26 27 28 29 30 
 31 32 33 34 35 36 37 38 39 40 41 42 
 43 44 45 46 47 49 50 51 
 23 
 3 4 5 9 12 14 17 18 19 21 25 26 
 31 32 34 36 39 40 41 42 44 48 49 
 8 
 10 16 18 19 22 31 46 51 
 29 
 4 8 9 11 12 13 15 19 22 23 26 27 
 28 30 31 33 35 36 38 39 40 41 42 43 
 44 45 46 48 51 
 32 
 1 2 4 5 7 10 11 12 14 15 16 17 
 19 20 21 23 24 25 26 27 31 32 34 35 
 38 41 42 44 45 46 48 50 
 11 
 4 5 6 12 17 20 24 25 35 36 46 
 41 
 1 3 4 5 6 7 8 9 10 12 13 14 
 15 16 18 19 20 21 23 24 25 26 27 29 
 30 33 34 36 37 38 39 40 41 42 44 45 
 46 47 49 50 51 
 37 
 1 2 3 4 5 6 7 8 9 10 13 15 
 19 20 22 23 25 26 28 29 31 33 34 35 
 36 38 39 40 41 42 43 44 45 46 48 49 
 50 
 47 
 1 2 3 5 6 7 8 9 10 11 12 13 
 14 15 16 17 18 19 20 21 22 23 24 25 
 26 27 28 29 31 32 33 34 35 36 37 38 
 39 40 41 42 43 44 45 46 47 48 49 
 39 
 1 2 4 6 7 9 10 11 12 13 15 16 
 17 18 20 21 22 23 27 28 29 31 32 34 
 35 36 37 38 39 40 41 42 43 44 45 46 
 48 49 50 
 31 
 1 2 3 4 6 7 8 9 10 13 14 21 
 22 23 24 26 27 31 32 33 34 37 41 42 
 43 44 46 47 48 49 50 
 24 
 3 5 11 13 14 15 16 17 18 19 20 25 
 27 28 29 31 35 36 37 40 42 43 48 49 
 12 
 5 10 12 14 19 25 27 34 39 43 46 47 
 15 
 6 11 13 15 20 21 22 24 26 29 34 39 
 40 46 49 
 42 
 1 3 6 8 10 11 12 13 14 15 16 17 
 18 19 20 21 22 23 24 25 26 27 28 29 
 30 31 32 34 35 36 37 38 40 41 43 44 
 45 47 48 49 50 51 
 16 
 1 7 17 19 22 24 25 26 28 30 38 42 
 43 44 45 47 
 22 
 3 4 5 8 10 12 13 15 16 17 25 27 
 29 33 36 38 40 42 46 49 50 51 
 2 
 16 23 
 18 
 2 4 10 11 12 13 19 23 26 27 32 35 
 37 39 42 44 45 50 
 48 
 1 2 3 4 5 6 7 8 9 10 11 12 
 13 14 15 16 17 18 19 20 21 22 23 25 
 26 27 28 29 30 32 33 34 35 36 37 38 
 39 40 41 42 43 44 45 46 47 49 50 51 
 18 
 3 6 8 19 20 23 26 27 36 37 39 40 
 41 44 45 46 47 50 
 33 
 1 2 3 4 5 6 7 8 11 13 14 15 
 16 18 19 20 22 24 25 26 27 28 31 36 
 37 38 40 45 46 47 49 50 51 
 34 
 1 3 4 5 6 7 8 9 10 11 12 13 
 14 15 17 20 21 22 23 24 26 27 29 30 
 34 35 37 38 41 44 45 47 48 51 
 9 
 3 4 11 18 20 22 33 40 43 
 34 
 1 2 3 4 6 7 10 11 12 14 15 16 
 17 20 23 24 25 27 29 30 31 32 33 34 
 35 37 38 39 40 43 45 48 50 51 
 50 
 1 2 3 4 5 6 7 8 9 10 11 12 
 13 14 15 16 17 18 19 20 21 22 23 24 
 25 26 27 28 29 30 31 32 33 34 35 36 
 38 39 40 41 42 43 44 45 46 47 48 49 
 50 51 
 50 
 1 2 3 4 5 6 7 8 9 10 11 12 
 13 14 15 16 17 18 19 20 21 22 23 24 
 25 26 27 28 29 30 31 32 33 34 35 36 
 37 38 39 40 41 42 43 44 45 46 47 48 
 49 51 
 21 
 3 5 8 11 13 15 17 21 23 24 26 29 
 32 33 35 36 40 42 45 47 48 
 47 
 1 3 4 5 6 7 8 9 10 11 12 13 
 14 15 16 17 18 19 20 21 22 23 24 25 
 26 27 29 31 32 33 34 35 36 37 38 39 
 40 41 42 43 44 45 46 47 48 49 51 
 45 
 1 2 3 4 6 7 8 9 10 11 12 13 
 15 16 17 18 19 20 21 22 23 24 25 26 
 28 29 30 31 32 33 34 35 36 37 38 39 
 40 42 44 46 47 48 49 50 51 
 51 
 1 2 3 4 5 6 7 8 9 10 11 12 
 13 14 15 16 17 18 19 20 21 22 23 24 
 25 26 27 28 29 30 31 32 33 34 35 36 
 37 38 39 40 41 42 43 44 45 46 47 48 
 49 50 51 
 24 
 2 3 4 5 6 11 12 14 15 16 18 21 
 25 27 30 31 34 36 38 39 40 42 45 46 
 36 
 1 3 4 5 6 7 9 13 14 16 17 18 
 19 20 21 23 24 25 26 27 28 30 31 34 
 36 38 39 40 41 43 46 47 48 49 50 51 
 5 
 12 13 22 31 40 
 51 
 1 2 3 4 5 6 7 8 9 10 11 12 
 13 14 15 16 17 18 19 20 21 22 23 24 
 25 26 27 28 29 30 31 32 33 34 35 36 
 37 38 39 40 41 42 43 44 45 46 47 48 
 49 50 51 
 20 
 1 7 10 11 12 22 24 26 29 30 33 35 
 36 37 39 40 42 43 45 47 
 33 
 3 4 5 6 11 13 14 17 18 19 20 21 
 22 23 24 25 29 30 32 33 35 36 40 41 
 42 43 44 45 46 47 48 50 51 
 45 
 1 3 4 5 6 7 8 9 10 11 12 13 
 14 16 17 18 19 20 21 22 23 25 26 27 
 28 29 31 32 33 34 35 36 37 38 39 40 
 41 42 43 44 46 47 48 49 51 
 9 
 4 8 14 21 24 34 38 44 45 
 9 
 2 23 25 26 30 36 40 43 47 
 33 
 1 2 6 7 8 9 10 11 12 14 15 16 
 17 20 21 22 23 25 26 27 28 31 32 34 
 35 38 41 42 45 46 47 50 51 
 49 
 1 2 3 4 5 6 7 8 9 10 11 12 
 13 14 15 16 17 18 19 20 21 22 23 24 
 25 26 27 28 29 30 31 32 33 34 35 37 
 38 39 40 41 42 43 45 46 47 48 49 50 
 51 
 14 
 2 7 9 10 19 24 33 34 36 38 44 45 
 49 51 
 35 
 2 3 4 6 9 10 11 12 13 17 18 19 
 21 23 24 25 27 28 29 30 31 32 33 34 
 35 36 37 38 39 41 42 45 46 50 51 
 39 
 1 2 3 4 5 6 8 9 10 11 12 13 
 14 15 18 19 21 22 23 25 26 27 29 31 
 32 33 34 36 38 39 40 41 42 44 45 47 
 48 49 51 
 21 
 1 2 3 7 8 11 17 18 24 26 27 29 
 32 33 34 35 45 48 49 50 51 
 22 
 1 3 5 6 10 11 18 19 21 24 29 32 
 33 34 36 38 40 41 44 47 48 51 
 33 
 1 3 4 5 6 8 10 12 13 14 15 16 
 17 18 19 20 21 24 25 29 30 31 34 35 
 36 37 38 39 40 45 46 48 51 
 14 
 2 3 4 6 11 14 19 21 23 27 37 42 
 45 48 
 34 
 1 3 4 5 6 7 8 9 10 11 12 13 
 14 15 18 20 22 23 24 25 27 28 30 32 
 35 37 40 41 42 43 45 47 50 51 
 32 
 1 3 6 9 10 11 12 13 15 16 18 21 
 22 23 24 27 28 29 30 32 33 34 35 39 
 40 41 44 45 46 47 48 51 
 12 
 3 6 9 10 11 13 30 38 41 42 45 48 
 7 
 7 15 19 26 38 44 51 
 19 
 1 2 5 7 8 9 13 15 16 21 23 25 
 31 32 36 38 39 40 48 
 6 
 12 15 19 27 31 51 
 10 
 3 4 5 12 13 17 19 25 29 47 
 48 
 1 2 3 4 5 6 7 9 10 11 12 13 
 14 15 17 18 19 20 21 22 23 24 25 26 
 27 28 29 30 31 32 33 34 35 36 37 39 
 40 41 42 43 44 45 46 47 48 49 50 51 
 10 
 2 9 15 20 21 34 36 43 47 49 
 7 
 8 13 15 20 41 42 50 
 8 
 4 10 22 24 29 31 38 45 
 33 
 1 2 6 7 8 9 10 13 15 16 18 19 
 20 21 25 26 27 28 29 33 35 36 37 38 
 39 40 41 42 43 44 48 49 50 
 6 
 9 21 28 30 48 51 
 3 
 7 10 14 
 11 
 1 9 14 19 21 26 31 32 34 43 49 
 27 
 1 4 5 7 8 9 10 11 14 15 17 18 
 19 21 24 26 27 28 37 38 39 42 44 46 
 47 49 50 
 44 
 2 3 4 6 7 8 9 11 12 13 14 15 
 16 17 18 19 21 22 23 24 25 26 27 28 
 29 30 31 32 33 34 35 36 37 38 39 40 
 42 43 44 45 46 47 49 50 
 33 
 1 3 4 5 8 9 10 14 16 17 18 19 
 20 22 23 24 25 26 28 30 31 34 36 38 
 40 41 42 45 46 47 49 50 51 
 36 
 2 3 4 5 7 8 9 12 14 15 16 18 
 19 20 22 23 25 26 27 28 29 31 33 34 
 36 37 39 40 42 43 44 47 48 49 50 51 
 